/*********************************************
 * OPL 12.6.0.0 Data
 * Author: Adrian Rodriguez Bazaga, Pau Rodriguez Esmerats
 * Creation Date: 06/12/2017 at 23:03:00
 *********************************************/

nNurses=189;
maxConsec=2;
maxPresence=7;
maxHours=5;
minHours=1;
hours=24;
demand= [34 36 42 48 36 42 48 37 32 18 4 6 4 6 7 5 4 2 3 0 33 54 24 43  ];
